p cnf 405 2183
-1 -301 0
-1 -302 0
-1 -303 0
-2 301 0
-2 -302 0
-2 -303 0
-3 -301 0
-3 302 0
-3 -303 0
-4 301 0
-4 302 0
-4 -303 0
-5 -301 0
-5 -302 0
-5 303 0
-6 301 0
-6 -302 0
-6 303 0
1 2 3 4 5 6 0
-1 43 0
-1 7 0
-2 44 0
-2 8 0
-3 45 0
-3 9 0
-4 46 0
-4 10 0
-5 47 0
-5 11 0
-6 48 0
-6 12 0
-7 -304 0
-7 -305 0
-7 -306 0
-8 304 0
-8 -305 0
-8 -306 0
-9 -304 0
-9 305 0
-9 -306 0
-10 304 0
-10 305 0
-10 -306 0
-11 -304 0
-11 -305 0
-11 306 0
-12 304 0
-12 -305 0
-12 306 0
7 8 9 10 11 12 0
-7 1 13 0
-7 1 49 0
-7 13 49 0
-8 2 14 0
-8 2 50 0
-8 14 50 0
-9 3 15 0
-9 3 51 0
-9 15 51 0
-10 4 16 0
-10 4 52 0
-10 16 52 0
-11 5 17 0
-11 5 53 0
-11 17 53 0
-12 6 18 0
-12 6 54 0
-12 18 54 0
-7 -1 -13 -49 0
-8 -2 -14 -50 0
-9 -3 -15 -51 0
-10 -4 -16 -52 0
-11 -5 -17 -53 0
-12 -6 -18 -54 0
13 0
-14 0
-15 0
-16 0
-17 0
-18 0
7 19 55 0
-7 -19 0
-7 -55 0
-19 -55 0
-19 -310 0
-19 -311 0
-19 -312 0
-20 310 0
-20 -311 0
-20 -312 0
-21 -310 0
-21 311 0
-21 -312 0
-22 310 0
-22 311 0
-22 -312 0
-23 -310 0
-23 -311 0
-23 312 0
-24 310 0
-24 -311 0
-24 312 0
19 20 21 22 23 24 0
-19 13 25 0
-19 13 61 0
-19 25 61 0
-20 14 26 0
-20 14 62 0
-20 26 62 0
-21 15 27 0
-21 15 63 0
-21 27 63 0
-22 16 28 0
-22 16 64 0
-22 28 64 0
-23 17 29 0
-23 17 65 0
-23 29 65 0
-24 18 30 0
-24 18 66 0
-24 30 66 0
-19 -13 -25 -61 0
-20 -14 -26 -62 0
-21 -15 -27 -63 0
-22 -16 -28 -64 0
-23 -17 -29 -65 0
-24 -18 -30 -66 0
-25 -313 0
-25 -314 0
-25 -315 0
-26 313 0
-26 -314 0
-26 -315 0
-27 -313 0
-27 314 0
-27 -315 0
-28 313 0
-28 314 0
-28 -315 0
-29 -313 0
-29 -314 0
-29 315 0
-30 313 0
-30 -314 0
-30 315 0
25 26 27 28 29 30 0
-25 19 31 0
-25 19 67 0
-25 31 67 0
-26 20 32 0
-26 20 68 0
-26 32 68 0
-27 21 33 0
-27 21 69 0
-27 33 69 0
-28 22 34 0
-28 22 70 0
-28 34 70 0
-29 23 35 0
-29 23 71 0
-29 35 71 0
-30 24 36 0
-30 24 72 0
-30 36 72 0
-25 -19 -31 -67 0
-26 -20 -32 -68 0
-27 -21 -33 -69 0
-28 -22 -34 -70 0
-29 -23 -35 -71 0
-30 -24 -36 -72 0
35 0
-31 0
-32 0
-33 0
-34 0
-36 0
29 41 77 0
-29 -41 0
-29 -77 0
-41 -77 0
42 0
-37 0
-38 0
-39 0
-40 0
-41 0
84 36 0
-84 -36 0
-43 -322 0
-43 -323 0
-43 -324 0
-44 322 0
-44 -323 0
-44 -324 0
-45 -322 0
-45 323 0
-45 -324 0
-46 322 0
-46 323 0
-46 -324 0
-47 -322 0
-47 -323 0
-47 324 0
-48 322 0
-48 -323 0
-48 324 0
43 44 45 46 47 48 0
-43 85 49 0
-43 85 1 0
-43 49 1 0
-44 86 50 0
-44 86 2 0
-44 50 2 0
-45 87 51 0
-45 87 3 0
-45 51 3 0
-46 88 52 0
-46 88 4 0
-46 52 4 0
-47 89 53 0
-47 89 5 0
-47 53 5 0
-48 90 54 0
-48 90 6 0
-48 54 6 0
-43 -85 -49 -1 0
-44 -86 -50 -2 0
-45 -87 -51 -3 0
-46 -88 -52 -4 0
-47 -89 -53 -5 0
-48 -90 -54 -6 0
-49 -325 0
-49 -326 0
-49 -327 0
-50 325 0
-50 -326 0
-50 -327 0
-51 -325 0
-51 326 0
-51 -327 0
-52 325 0
-52 326 0
-52 -327 0
-53 -325 0
-53 -326 0
-53 327 0
-54 325 0
-54 -326 0
-54 327 0
49 50 51 52 53 54 0
-49 91 55 7 0
-49 91 55 43 0
-49 91 7 43 0
-49 55 7 43 0
-50 92 56 8 0
-50 92 56 44 0
-50 92 8 44 0
-50 56 8 44 0
-51 93 57 9 0
-51 93 57 45 0
-51 93 9 45 0
-51 57 9 45 0
-52 94 58 10 0
-52 94 58 46 0
-52 94 10 46 0
-52 58 10 46 0
-53 95 59 11 0
-53 95 59 47 0
-53 95 11 47 0
-53 59 11 47 0
-54 96 60 12 0
-54 96 60 48 0
-54 96 12 48 0
-54 60 12 48 0
-49 -91 -55 -7 0
-49 -91 -55 -43 0
-49 -91 -7 -43 0
-49 -55 -7 -43 0
-50 -92 -56 -8 0
-50 -92 -56 -44 0
-50 -92 -8 -44 0
-50 -56 -8 -44 0
-51 -93 -57 -9 0
-51 -93 -57 -45 0
-51 -93 -9 -45 0
-51 -57 -9 -45 0
-52 -94 -58 -10 0
-52 -94 -58 -46 0
-52 -94 -10 -46 0
-52 -58 -10 -46 0
-53 -95 -59 -11 0
-53 -95 -59 -47 0
-53 -95 -11 -47 0
-53 -59 -11 -47 0
-54 -96 -60 -12 0
-54 -96 -60 -48 0
-54 -96 -12 -48 0
-54 -60 -12 -48 0
-55 -328 0
-55 -329 0
-55 -330 0
-56 328 0
-56 -329 0
-56 -330 0
-57 -328 0
-57 329 0
-57 -330 0
-58 328 0
-58 329 0
-58 -330 0
-59 -328 0
-59 -329 0
-59 330 0
-60 328 0
-60 -329 0
-60 330 0
55 56 57 58 59 60 0
-55 97 61 13 0
-55 97 61 49 0
-55 97 13 49 0
-55 61 13 49 0
-56 98 62 14 0
-56 98 62 50 0
-56 98 14 50 0
-56 62 14 50 0
-57 99 63 15 0
-57 99 63 51 0
-57 99 15 51 0
-57 63 15 51 0
-58 100 64 16 0
-58 100 64 52 0
-58 100 16 52 0
-58 64 16 52 0
-59 101 65 17 0
-59 101 65 53 0
-59 101 17 53 0
-59 65 17 53 0
-60 102 66 18 0
-60 102 66 54 0
-60 102 18 54 0
-60 66 18 54 0
-55 -97 -61 -13 0
-55 -97 -61 -49 0
-55 -97 -13 -49 0
-55 -61 -13 -49 0
-56 -98 -62 -14 0
-56 -98 -62 -50 0
-56 -98 -14 -50 0
-56 -62 -14 -50 0
-57 -99 -63 -15 0
-57 -99 -63 -51 0
-57 -99 -15 -51 0
-57 -63 -15 -51 0
-58 -100 -64 -16 0
-58 -100 -64 -52 0
-58 -100 -16 -52 0
-58 -64 -16 -52 0
-59 -101 -65 -17 0
-59 -101 -65 -53 0
-59 -101 -17 -53 0
-59 -65 -17 -53 0
-60 -102 -66 -18 0
-60 -102 -66 -54 0
-60 -102 -18 -54 0
-60 -66 -18 -54 0
-61 -331 0
-61 -332 0
-61 -333 0
-62 331 0
-62 -332 0
-62 -333 0
-63 -331 0
-63 332 0
-63 -333 0
-64 331 0
-64 332 0
-64 -333 0
-65 -331 0
-65 -332 0
-65 333 0
-66 331 0
-66 -332 0
-66 333 0
61 62 63 64 65 66 0
-61 103 67 19 0
-61 103 67 55 0
-61 103 19 55 0
-61 67 19 55 0
-62 104 68 20 0
-62 104 68 56 0
-62 104 20 56 0
-62 68 20 56 0
-63 105 69 21 0
-63 105 69 57 0
-63 105 21 57 0
-63 69 21 57 0
-64 106 70 22 0
-64 106 70 58 0
-64 106 22 58 0
-64 70 22 58 0
-65 107 71 23 0
-65 107 71 59 0
-65 107 23 59 0
-65 71 23 59 0
-66 108 72 24 0
-66 108 72 60 0
-66 108 24 60 0
-66 72 24 60 0
-61 -103 -67 -19 0
-61 -103 -67 -55 0
-61 -103 -19 -55 0
-61 -67 -19 -55 0
-62 -104 -68 -20 0
-62 -104 -68 -56 0
-62 -104 -20 -56 0
-62 -68 -20 -56 0
-63 -105 -69 -21 0
-63 -105 -69 -57 0
-63 -105 -21 -57 0
-63 -69 -21 -57 0
-64 -106 -70 -22 0
-64 -106 -70 -58 0
-64 -106 -22 -58 0
-64 -70 -22 -58 0
-65 -107 -71 -23 0
-65 -107 -71 -59 0
-65 -107 -23 -59 0
-65 -71 -23 -59 0
-66 -108 -72 -24 0
-66 -108 -72 -60 0
-66 -108 -24 -60 0
-66 -72 -24 -60 0
-67 -334 0
-67 -335 0
-67 -336 0
-68 334 0
-68 -335 0
-68 -336 0
-69 -334 0
-69 335 0
-69 -336 0
-70 334 0
-70 335 0
-70 -336 0
-71 -334 0
-71 -335 0
-71 336 0
-72 334 0
-72 -335 0
-72 336 0
67 68 69 70 71 72 0
-67 109 73 25 0
-67 109 73 61 0
-67 109 25 61 0
-67 73 25 61 0
-68 110 74 26 0
-68 110 74 62 0
-68 110 26 62 0
-68 74 26 62 0
-69 111 75 27 0
-69 111 75 63 0
-69 111 27 63 0
-69 75 27 63 0
-70 112 76 28 0
-70 112 76 64 0
-70 112 28 64 0
-70 76 28 64 0
-71 113 77 29 0
-71 113 77 65 0
-71 113 29 65 0
-71 77 29 65 0
-72 114 78 30 0
-72 114 78 66 0
-72 114 30 66 0
-72 78 30 66 0
-67 -109 -73 -25 0
-67 -109 -73 -61 0
-67 -109 -25 -61 0
-67 -73 -25 -61 0
-68 -110 -74 -26 0
-68 -110 -74 -62 0
-68 -110 -26 -62 0
-68 -74 -26 -62 0
-69 -111 -75 -27 0
-69 -111 -75 -63 0
-69 -111 -27 -63 0
-69 -75 -27 -63 0
-70 -112 -76 -28 0
-70 -112 -76 -64 0
-70 -112 -28 -64 0
-70 -76 -28 -64 0
-71 -113 -77 -29 0
-71 -113 -77 -65 0
-71 -113 -29 -65 0
-71 -77 -29 -65 0
-72 -114 -78 -30 0
-72 -114 -78 -66 0
-72 -114 -30 -66 0
-72 -78 -30 -66 0
-73 -337 0
-73 -338 0
-73 -339 0
-74 337 0
-74 -338 0
-74 -339 0
-75 -337 0
-75 338 0
-75 -339 0
-76 337 0
-76 338 0
-76 -339 0
-77 -337 0
-77 -338 0
-77 339 0
-78 337 0
-78 -338 0
-78 339 0
73 74 75 76 77 78 0
-73 115 79 31 0
-73 115 79 67 0
-73 115 31 67 0
-73 79 31 67 0
-74 116 80 32 0
-74 116 80 68 0
-74 116 32 68 0
-74 80 32 68 0
-75 117 81 33 0
-75 117 81 69 0
-75 117 33 69 0
-75 81 33 69 0
-76 118 82 34 0
-76 118 82 70 0
-76 118 34 70 0
-76 82 34 70 0
-77 119 83 35 0
-77 119 83 71 0
-77 119 35 71 0
-77 83 35 71 0
-78 120 84 36 0
-78 120 84 72 0
-78 120 36 72 0
-78 84 36 72 0
-73 -115 -79 -31 0
-73 -115 -79 -67 0
-73 -115 -31 -67 0
-73 -79 -31 -67 0
-74 -116 -80 -32 0
-74 -116 -80 -68 0
-74 -116 -32 -68 0
-74 -80 -32 -68 0
-75 -117 -81 -33 0
-75 -117 -81 -69 0
-75 -117 -33 -69 0
-75 -81 -33 -69 0
-76 -118 -82 -34 0
-76 -118 -82 -70 0
-76 -118 -34 -70 0
-76 -82 -34 -70 0
-77 -119 -83 -35 0
-77 -119 -83 -71 0
-77 -119 -35 -71 0
-77 -83 -35 -71 0
-78 -120 -84 -36 0
-78 -120 -84 -72 0
-78 -120 -36 -72 0
-78 -84 -36 -72 0
-79 -340 0
-79 -341 0
-79 -342 0
-80 340 0
-80 -341 0
-80 -342 0
-81 -340 0
-81 341 0
-81 -342 0
-82 340 0
-82 341 0
-82 -342 0
-83 -340 0
-83 -341 0
-83 342 0
-84 340 0
-84 -341 0
-84 342 0
79 80 81 82 83 84 0
-79 121 73 0
-79 121 37 0
-79 73 37 0
-80 122 74 0
-80 122 38 0
-80 74 38 0
-81 123 75 0
-81 123 39 0
-81 75 39 0
-82 124 76 0
-82 124 40 0
-82 76 40 0
-83 125 77 0
-83 125 41 0
-83 77 41 0
-84 126 78 0
-84 126 42 0
-84 78 42 0
-79 -121 -73 -37 0
-80 -122 -74 -38 0
-81 -123 -75 -39 0
-82 -124 -76 -40 0
-83 -125 -77 -41 0
-84 -126 -78 -42 0
-85 -343 0
-85 -344 0
-85 -345 0
-86 343 0
-86 -344 0
-86 -345 0
-87 -343 0
-87 344 0
-87 -345 0
-88 343 0
-88 344 0
-88 -345 0
-89 -343 0
-89 -344 0
-89 345 0
-90 343 0
-90 -344 0
-90 345 0
85 86 87 88 89 90 0
-85 127 91 0
-85 127 43 0
-85 91 43 0
-86 128 92 0
-86 128 44 0
-86 92 44 0
-87 129 93 0
-87 129 45 0
-87 93 45 0
-88 130 94 0
-88 130 46 0
-88 94 46 0
-89 131 95 0
-89 131 47 0
-89 95 47 0
-90 132 96 0
-90 132 48 0
-90 96 48 0
-85 -127 -91 -43 0
-86 -128 -92 -44 0
-87 -129 -93 -45 0
-88 -130 -94 -46 0
-89 -131 -95 -47 0
-90 -132 -96 -48 0
-91 -346 0
-91 -347 0
-91 -348 0
-92 346 0
-92 -347 0
-92 -348 0
-93 -346 0
-93 347 0
-93 -348 0
-94 346 0
-94 347 0
-94 -348 0
-95 -346 0
-95 -347 0
-95 348 0
-96 346 0
-96 -347 0
-96 348 0
91 92 93 94 95 96 0
-91 133 97 49 0
-91 133 97 85 0
-91 133 49 85 0
-91 97 49 85 0
-92 134 98 50 0
-92 134 98 86 0
-92 134 50 86 0
-92 98 50 86 0
-93 135 99 51 0
-93 135 99 87 0
-93 135 51 87 0
-93 99 51 87 0
-94 136 100 52 0
-94 136 100 88 0
-94 136 52 88 0
-94 100 52 88 0
-95 137 101 53 0
-95 137 101 89 0
-95 137 53 89 0
-95 101 53 89 0
-96 138 102 54 0
-96 138 102 90 0
-96 138 54 90 0
-96 102 54 90 0
-91 -133 -97 -49 0
-91 -133 -97 -85 0
-91 -133 -49 -85 0
-91 -97 -49 -85 0
-92 -134 -98 -50 0
-92 -134 -98 -86 0
-92 -134 -50 -86 0
-92 -98 -50 -86 0
-93 -135 -99 -51 0
-93 -135 -99 -87 0
-93 -135 -51 -87 0
-93 -99 -51 -87 0
-94 -136 -100 -52 0
-94 -136 -100 -88 0
-94 -136 -52 -88 0
-94 -100 -52 -88 0
-95 -137 -101 -53 0
-95 -137 -101 -89 0
-95 -137 -53 -89 0
-95 -101 -53 -89 0
-96 -138 -102 -54 0
-96 -138 -102 -90 0
-96 -138 -54 -90 0
-96 -102 -54 -90 0
102 0
-97 0
-98 0
-99 0
-100 0
-101 0
144 108 60 96 0
-144 -108 0
-144 -60 0
-144 -96 0
-108 -60 0
-108 -96 0
-60 -96 0
-103 -352 0
-103 -353 0
-103 -354 0
-104 352 0
-104 -353 0
-104 -354 0
-105 -352 0
-105 353 0
-105 -354 0
-106 352 0
-106 353 0
-106 -354 0
-107 -352 0
-107 -353 0
-107 354 0
-108 352 0
-108 -353 0
-108 354 0
103 104 105 106 107 108 0
-103 145 109 61 0
-103 145 109 97 0
-103 145 61 97 0
-103 109 61 97 0
-104 146 110 62 0
-104 146 110 98 0
-104 146 62 98 0
-104 110 62 98 0
-105 147 111 63 0
-105 147 111 99 0
-105 147 63 99 0
-105 111 63 99 0
-106 148 112 64 0
-106 148 112 100 0
-106 148 64 100 0
-106 112 64 100 0
-107 149 113 65 0
-107 149 113 101 0
-107 149 65 101 0
-107 113 65 101 0
-108 150 114 66 0
-108 150 114 102 0
-108 150 66 102 0
-108 114 66 102 0
-103 -145 -109 -61 0
-103 -145 -109 -97 0
-103 -145 -61 -97 0
-103 -109 -61 -97 0
-104 -146 -110 -62 0
-104 -146 -110 -98 0
-104 -146 -62 -98 0
-104 -110 -62 -98 0
-105 -147 -111 -63 0
-105 -147 -111 -99 0
-105 -147 -63 -99 0
-105 -111 -63 -99 0
-106 -148 -112 -64 0
-106 -148 -112 -100 0
-106 -148 -64 -100 0
-106 -112 -64 -100 0
-107 -149 -113 -65 0
-107 -149 -113 -101 0
-107 -149 -65 -101 0
-107 -113 -65 -101 0
-108 -150 -114 -66 0
-108 -150 -114 -102 0
-108 -150 -66 -102 0
-108 -114 -66 -102 0
-109 -355 0
-109 -356 0
-109 -357 0
-110 355 0
-110 -356 0
-110 -357 0
-111 -355 0
-111 356 0
-111 -357 0
-112 355 0
-112 356 0
-112 -357 0
-113 -355 0
-113 -356 0
-113 357 0
-114 355 0
-114 -356 0
-114 357 0
109 110 111 112 113 114 0
-109 151 115 67 0
-109 151 115 103 0
-109 151 67 103 0
-109 115 67 103 0
-110 152 116 68 0
-110 152 116 104 0
-110 152 68 104 0
-110 116 68 104 0
-111 153 117 69 0
-111 153 117 105 0
-111 153 69 105 0
-111 117 69 105 0
-112 154 118 70 0
-112 154 118 106 0
-112 154 70 106 0
-112 118 70 106 0
-113 155 119 71 0
-113 155 119 107 0
-113 155 71 107 0
-113 119 71 107 0
-114 156 120 72 0
-114 156 120 108 0
-114 156 72 108 0
-114 120 72 108 0
-109 -151 -115 -67 0
-109 -151 -115 -103 0
-109 -151 -67 -103 0
-109 -115 -67 -103 0
-110 -152 -116 -68 0
-110 -152 -116 -104 0
-110 -152 -68 -104 0
-110 -116 -68 -104 0
-111 -153 -117 -69 0
-111 -153 -117 -105 0
-111 -153 -69 -105 0
-111 -117 -69 -105 0
-112 -154 -118 -70 0
-112 -154 -118 -106 0
-112 -154 -70 -106 0
-112 -118 -70 -106 0
-113 -155 -119 -71 0
-113 -155 -119 -107 0
-113 -155 -71 -107 0
-113 -119 -71 -107 0
-114 -156 -120 -72 0
-114 -156 -120 -108 0
-114 -156 -72 -108 0
-114 -120 -72 -108 0
118 0
-115 0
-116 0
-117 0
-119 0
-120 0
160 124 76 112 0
-160 -124 0
-160 -76 0
-160 -112 0
-124 -76 0
-124 -112 0
-76 -112 0
122 0
-121 0
-123 0
-124 0
-125 0
-126 0
164 116 80 0
-164 -116 0
-164 -80 0
-116 -80 0
-127 -364 0
-127 -365 0
-127 -366 0
-128 364 0
-128 -365 0
-128 -366 0
-129 -364 0
-129 365 0
-129 -366 0
-130 364 0
-130 365 0
-130 -366 0
-131 -364 0
-131 -365 0
-131 366 0
-132 364 0
-132 -365 0
-132 366 0
127 128 129 130 131 132 0
-127 169 133 0
-127 169 85 0
-127 133 85 0
-128 170 134 0
-128 170 86 0
-128 134 86 0
-129 171 135 0
-129 171 87 0
-129 135 87 0
-130 172 136 0
-130 172 88 0
-130 136 88 0
-131 173 137 0
-131 173 89 0
-131 137 89 0
-132 174 138 0
-132 174 90 0
-132 138 90 0
-127 -169 -133 -85 0
-128 -170 -134 -86 0
-129 -171 -135 -87 0
-130 -172 -136 -88 0
-131 -173 -137 -89 0
-132 -174 -138 -90 0
-133 -367 0
-133 -368 0
-133 -369 0
-134 367 0
-134 -368 0
-134 -369 0
-135 -367 0
-135 368 0
-135 -369 0
-136 367 0
-136 368 0
-136 -369 0
-137 -367 0
-137 -368 0
-137 369 0
-138 367 0
-138 -368 0
-138 369 0
133 134 135 136 137 138 0
-133 175 139 91 0
-133 175 139 127 0
-133 175 91 127 0
-133 139 91 127 0
-134 176 140 92 0
-134 176 140 128 0
-134 176 92 128 0
-134 140 92 128 0
-135 177 141 93 0
-135 177 141 129 0
-135 177 93 129 0
-135 141 93 129 0
-136 178 142 94 0
-136 178 142 130 0
-136 178 94 130 0
-136 142 94 130 0
-137 179 143 95 0
-137 179 143 131 0
-137 179 95 131 0
-137 143 95 131 0
-138 180 144 96 0
-138 180 144 132 0
-138 180 96 132 0
-138 144 96 132 0
-133 -175 -139 -91 0
-133 -175 -139 -127 0
-133 -175 -91 -127 0
-133 -139 -91 -127 0
-134 -176 -140 -92 0
-134 -176 -140 -128 0
-134 -176 -92 -128 0
-134 -140 -92 -128 0
-135 -177 -141 -93 0
-135 -177 -141 -129 0
-135 -177 -93 -129 0
-135 -141 -93 -129 0
-136 -178 -142 -94 0
-136 -178 -142 -130 0
-136 -178 -94 -130 0
-136 -142 -94 -130 0
-137 -179 -143 -95 0
-137 -179 -143 -131 0
-137 -179 -95 -131 0
-137 -143 -95 -131 0
-138 -180 -144 -96 0
-138 -180 -144 -132 0
-138 -180 -96 -132 0
-138 -144 -96 -132 0
-139 -370 0
-139 -371 0
-139 -372 0
-140 370 0
-140 -371 0
-140 -372 0
-141 -370 0
-141 371 0
-141 -372 0
-142 370 0
-142 371 0
-142 -372 0
-143 -370 0
-143 -371 0
-143 372 0
-144 370 0
-144 -371 0
-144 372 0
139 140 141 142 143 144 0
-139 181 145 97 0
-139 181 145 133 0
-139 181 97 133 0
-139 145 97 133 0
-140 182 146 98 0
-140 182 146 134 0
-140 182 98 134 0
-140 146 98 134 0
-141 183 147 99 0
-141 183 147 135 0
-141 183 99 135 0
-141 147 99 135 0
-142 184 148 100 0
-142 184 148 136 0
-142 184 100 136 0
-142 148 100 136 0
-143 185 149 101 0
-143 185 149 137 0
-143 185 101 137 0
-143 149 101 137 0
-144 186 150 102 0
-144 186 150 138 0
-144 186 102 138 0
-144 150 102 138 0
-139 -181 -145 -97 0
-139 -181 -145 -133 0
-139 -181 -97 -133 0
-139 -145 -97 -133 0
-140 -182 -146 -98 0
-140 -182 -146 -134 0
-140 -182 -98 -134 0
-140 -146 -98 -134 0
-141 -183 -147 -99 0
-141 -183 -147 -135 0
-141 -183 -99 -135 0
-141 -147 -99 -135 0
-142 -184 -148 -100 0
-142 -184 -148 -136 0
-142 -184 -100 -136 0
-142 -148 -100 -136 0
-143 -185 -149 -101 0
-143 -185 -149 -137 0
-143 -185 -101 -137 0
-143 -149 -101 -137 0
-144 -186 -150 -102 0
-144 -186 -150 -138 0
-144 -186 -102 -138 0
-144 -150 -102 -138 0
-145 -373 0
-145 -374 0
-145 -375 0
-146 373 0
-146 -374 0
-146 -375 0
-147 -373 0
-147 374 0
-147 -375 0
-148 373 0
-148 374 0
-148 -375 0
-149 -373 0
-149 -374 0
-149 375 0
-150 373 0
-150 -374 0
-150 375 0
145 146 147 148 149 150 0
-145 187 151 103 0
-145 187 151 139 0
-145 187 103 139 0
-145 151 103 139 0
-146 188 152 104 0
-146 188 152 140 0
-146 188 104 140 0
-146 152 104 140 0
-147 189 153 105 0
-147 189 153 141 0
-147 189 105 141 0
-147 153 105 141 0
-148 190 154 106 0
-148 190 154 142 0
-148 190 106 142 0
-148 154 106 142 0
-149 191 155 107 0
-149 191 155 143 0
-149 191 107 143 0
-149 155 107 143 0
-150 192 156 108 0
-150 192 156 144 0
-150 192 108 144 0
-150 156 108 144 0
-145 -187 -151 -103 0
-145 -187 -151 -139 0
-145 -187 -103 -139 0
-145 -151 -103 -139 0
-146 -188 -152 -104 0
-146 -188 -152 -140 0
-146 -188 -104 -140 0
-146 -152 -104 -140 0
-147 -189 -153 -105 0
-147 -189 -153 -141 0
-147 -189 -105 -141 0
-147 -153 -105 -141 0
-148 -190 -154 -106 0
-148 -190 -154 -142 0
-148 -190 -106 -142 0
-148 -154 -106 -142 0
-149 -191 -155 -107 0
-149 -191 -155 -143 0
-149 -191 -107 -143 0
-149 -155 -107 -143 0
-150 -192 -156 -108 0
-150 -192 -156 -144 0
-150 -192 -108 -144 0
-150 -156 -108 -144 0
155 0
-151 0
-152 0
-153 0
-154 0
-156 0
197 161 113 149 0
-197 -161 0
-197 -113 0
-197 -149 0
-161 -113 0
-161 -149 0
-113 -149 0
-157 -379 0
-157 -380 0
-157 -381 0
-158 379 0
-158 -380 0
-158 -381 0
-159 -379 0
-159 380 0
-159 -381 0
-160 379 0
-160 380 0
-160 -381 0
-161 -379 0
-161 -380 0
-161 381 0
-162 379 0
-162 -380 0
-162 381 0
157 158 159 160 161 162 0
-157 199 163 115 0
-157 199 163 151 0
-157 199 115 151 0
-157 163 115 151 0
-158 200 164 116 0
-158 200 164 152 0
-158 200 116 152 0
-158 164 116 152 0
-159 201 165 117 0
-159 201 165 153 0
-159 201 117 153 0
-159 165 117 153 0
-160 202 166 118 0
-160 202 166 154 0
-160 202 118 154 0
-160 166 118 154 0
-161 203 167 119 0
-161 203 167 155 0
-161 203 119 155 0
-161 167 119 155 0
-162 204 168 120 0
-162 204 168 156 0
-162 204 120 156 0
-162 168 120 156 0
-157 -199 -163 -115 0
-157 -199 -163 -151 0
-157 -199 -115 -151 0
-157 -163 -115 -151 0
-158 -200 -164 -116 0
-158 -200 -164 -152 0
-158 -200 -116 -152 0
-158 -164 -116 -152 0
-159 -201 -165 -117 0
-159 -201 -165 -153 0
-159 -201 -117 -153 0
-159 -165 -117 -153 0
-160 -202 -166 -118 0
-160 -202 -166 -154 0
-160 -202 -118 -154 0
-160 -166 -118 -154 0
-161 -203 -167 -119 0
-161 -203 -167 -155 0
-161 -203 -119 -155 0
-161 -167 -119 -155 0
-162 -204 -168 -120 0
-162 -204 -168 -156 0
-162 -204 -120 -156 0
-162 -168 -120 -156 0
-163 -382 0
-163 -383 0
-163 -384 0
-164 382 0
-164 -383 0
-164 -384 0
-165 -382 0
-165 383 0
-165 -384 0
-166 382 0
-166 383 0
-166 -384 0
-167 -382 0
-167 -383 0
-167 384 0
-168 382 0
-168 -383 0
-168 384 0
163 164 165 166 167 168 0
-163 205 157 0
-163 205 121 0
-163 157 121 0
-164 206 158 0
-164 206 122 0
-164 158 122 0
-165 207 159 0
-165 207 123 0
-165 159 123 0
-166 208 160 0
-166 208 124 0
-166 160 124 0
-167 209 161 0
-167 209 125 0
-167 161 125 0
-168 210 162 0
-168 210 126 0
-168 162 126 0
-163 -205 -157 -121 0
-164 -206 -158 -122 0
-165 -207 -159 -123 0
-166 -208 -160 -124 0
-167 -209 -161 -125 0
-168 -210 -162 -126 0
-169 -385 0
-169 -386 0
-169 -387 0
-170 385 0
-170 -386 0
-170 -387 0
-171 -385 0
-171 386 0
-171 -387 0
-172 385 0
-172 386 0
-172 -387 0
-173 -385 0
-173 -386 0
-173 387 0
-174 385 0
-174 -386 0
-174 387 0
169 170 171 172 173 174 0
-169 211 175 0
-169 211 127 0
-169 175 127 0
-170 212 176 0
-170 212 128 0
-170 176 128 0
-171 213 177 0
-171 213 129 0
-171 177 129 0
-172 214 178 0
-172 214 130 0
-172 178 130 0
-173 215 179 0
-173 215 131 0
-173 179 131 0
-174 216 180 0
-174 216 132 0
-174 180 132 0
-169 -211 -175 -127 0
-170 -212 -176 -128 0
-171 -213 -177 -129 0
-172 -214 -178 -130 0
-173 -215 -179 -131 0
-174 -216 -180 -132 0
178 0
-175 0
-176 0
-177 0
-179 0
-180 0
220 184 136 172 0
-220 -184 0
-220 -136 0
-220 -172 0
-184 -136 0
-184 -172 0
-136 -172 0
-181 -391 0
-181 -392 0
-181 -393 0
-182 391 0
-182 -392 0
-182 -393 0
-183 -391 0
-183 392 0
-183 -393 0
-184 391 0
-184 392 0
-184 -393 0
-185 -391 0
-185 -392 0
-185 393 0
-186 391 0
-186 -392 0
-186 393 0
181 182 183 184 185 186 0
-181 223 187 139 0
-181 223 187 175 0
-181 223 139 175 0
-181 187 139 175 0
-182 224 188 140 0
-182 224 188 176 0
-182 224 140 176 0
-182 188 140 176 0
-183 225 189 141 0
-183 225 189 177 0
-183 225 141 177 0
-183 189 141 177 0
-184 226 190 142 0
-184 226 190 178 0
-184 226 142 178 0
-184 190 142 178 0
-185 227 191 143 0
-185 227 191 179 0
-185 227 143 179 0
-185 191 143 179 0
-186 228 192 144 0
-186 228 192 180 0
-186 228 144 180 0
-186 192 144 180 0
-181 -223 -187 -139 0
-181 -223 -187 -175 0
-181 -223 -139 -175 0
-181 -187 -139 -175 0
-182 -224 -188 -140 0
-182 -224 -188 -176 0
-182 -224 -140 -176 0
-182 -188 -140 -176 0
-183 -225 -189 -141 0
-183 -225 -189 -177 0
-183 -225 -141 -177 0
-183 -189 -141 -177 0
-184 -226 -190 -142 0
-184 -226 -190 -178 0
-184 -226 -142 -178 0
-184 -190 -142 -178 0
-185 -227 -191 -143 0
-185 -227 -191 -179 0
-185 -227 -143 -179 0
-185 -191 -143 -179 0
-186 -228 -192 -144 0
-186 -228 -192 -180 0
-186 -228 -144 -180 0
-186 -192 -144 -180 0
-187 -394 0
-187 -395 0
-187 -396 0
-188 394 0
-188 -395 0
-188 -396 0
-189 -394 0
-189 395 0
-189 -396 0
-190 394 0
-190 395 0
-190 -396 0
-191 -394 0
-191 -395 0
-191 396 0
-192 394 0
-192 -395 0
-192 396 0
187 188 189 190 191 192 0
-187 229 193 145 0
-187 229 193 181 0
-187 229 145 181 0
-187 193 145 181 0
-188 230 194 146 0
-188 230 194 182 0
-188 230 146 182 0
-188 194 146 182 0
-189 231 195 147 0
-189 231 195 183 0
-189 231 147 183 0
-189 195 147 183 0
-190 232 196 148 0
-190 232 196 184 0
-190 232 148 184 0
-190 196 148 184 0
-191 233 197 149 0
-191 233 197 185 0
-191 233 149 185 0
-191 197 149 185 0
-192 234 198 150 0
-192 234 198 186 0
-192 234 150 186 0
-192 198 150 186 0
-187 -229 -193 -145 0
-187 -229 -193 -181 0
-187 -229 -145 -181 0
-187 -193 -145 -181 0
-188 -230 -194 -146 0
-188 -230 -194 -182 0
-188 -230 -146 -182 0
-188 -194 -146 -182 0
-189 -231 -195 -147 0
-189 -231 -195 -183 0
-189 -231 -147 -183 0
-189 -195 -147 -183 0
-190 -232 -196 -148 0
-190 -232 -196 -184 0
-190 -232 -148 -184 0
-190 -196 -148 -184 0
-191 -233 -197 -149 0
-191 -233 -197 -185 0
-191 -233 -149 -185 0
-191 -197 -149 -185 0
-192 -234 -198 -150 0
-192 -234 -198 -186 0
-192 -234 -150 -186 0
-192 -198 -150 -186 0
-193 -397 0
-193 -398 0
-193 -399 0
-194 397 0
-194 -398 0
-194 -399 0
-195 -397 0
-195 398 0
-195 -399 0
-196 397 0
-196 398 0
-196 -399 0
-197 -397 0
-197 -398 0
-197 399 0
-198 397 0
-198 -398 0
-198 399 0
193 194 195 196 197 198 0
-193 235 199 151 0
-193 235 199 187 0
-193 235 151 187 0
-193 199 151 187 0
-194 236 200 152 0
-194 236 200 188 0
-194 236 152 188 0
-194 200 152 188 0
-195 237 201 153 0
-195 237 201 189 0
-195 237 153 189 0
-195 201 153 189 0
-196 238 202 154 0
-196 238 202 190 0
-196 238 154 190 0
-196 202 154 190 0
-197 239 203 155 0
-197 239 203 191 0
-197 239 155 191 0
-197 203 155 191 0
-198 240 204 156 0
-198 240 204 192 0
-198 240 156 192 0
-198 204 156 192 0
-193 -235 -199 -151 0
-193 -235 -199 -187 0
-193 -235 -151 -187 0
-193 -199 -151 -187 0
-194 -236 -200 -152 0
-194 -236 -200 -188 0
-194 -236 -152 -188 0
-194 -200 -152 -188 0
-195 -237 -201 -153 0
-195 -237 -201 -189 0
-195 -237 -153 -189 0
-195 -201 -153 -189 0
-196 -238 -202 -154 0
-196 -238 -202 -190 0
-196 -238 -154 -190 0
-196 -202 -154 -190 0
-197 -239 -203 -155 0
-197 -239 -203 -191 0
-197 -239 -155 -191 0
-197 -203 -155 -191 0
-198 -240 -204 -156 0
-198 -240 -204 -192 0
-198 -240 -156 -192 0
-198 -204 -156 -192 0
-199 -400 0
-199 -401 0
-199 -402 0
-200 400 0
-200 -401 0
-200 -402 0
-201 -400 0
-201 401 0
-201 -402 0
-202 400 0
-202 401 0
-202 -402 0
-203 -400 0
-203 -401 0
-203 402 0
-204 400 0
-204 -401 0
-204 402 0
199 200 201 202 203 204 0
-199 241 205 157 0
-199 241 205 193 0
-199 241 157 193 0
-199 205 157 193 0
-200 242 206 158 0
-200 242 206 194 0
-200 242 158 194 0
-200 206 158 194 0
-201 243 207 159 0
-201 243 207 195 0
-201 243 159 195 0
-201 207 159 195 0
-202 244 208 160 0
-202 244 208 196 0
-202 244 160 196 0
-202 208 160 196 0
-203 245 209 161 0
-203 245 209 197 0
-203 245 161 197 0
-203 209 161 197 0
-204 246 210 162 0
-204 246 210 198 0
-204 246 162 198 0
-204 210 162 198 0
-199 -241 -205 -157 0
-199 -241 -205 -193 0
-199 -241 -157 -193 0
-199 -205 -157 -193 0
-200 -242 -206 -158 0
-200 -242 -206 -194 0
-200 -242 -158 -194 0
-200 -206 -158 -194 0
-201 -243 -207 -159 0
-201 -243 -207 -195 0
-201 -243 -159 -195 0
-201 -207 -159 -195 0
-202 -244 -208 -160 0
-202 -244 -208 -196 0
-202 -244 -160 -196 0
-202 -208 -160 -196 0
-203 -245 -209 -161 0
-203 -245 -209 -197 0
-203 -245 -161 -197 0
-203 -209 -161 -197 0
-204 -246 -210 -162 0
-204 -246 -210 -198 0
-204 -246 -162 -198 0
-204 -210 -162 -198 0
-205 -403 0
-205 -404 0
-205 -405 0
-206 403 0
-206 -404 0
-206 -405 0
-207 -403 0
-207 404 0
-207 -405 0
-208 403 0
-208 404 0
-208 -405 0
-209 -403 0
-209 -404 0
-209 405 0
-210 403 0
-210 -404 0
-210 405 0
205 206 207 208 209 210 0
-205 247 199 0
-205 247 163 0
-205 199 163 0
-206 248 200 0
-206 248 164 0
-206 200 164 0
-207 249 201 0
-207 249 165 0
-207 201 165 0
-208 250 202 0
-208 250 166 0
-208 202 166 0
-209 251 203 0
-209 251 167 0
-209 203 167 0
-210 252 204 0
-210 252 168 0
-210 204 168 0
-205 -247 -199 -163 0
-206 -248 -200 -164 0
-207 -249 -201 -165 0
-208 -250 -202 -166 0
-209 -251 -203 -167 0
-210 -252 -204 -168 0
-211 -406 0
-211 -407 0
-211 -408 0
-212 406 0
-212 -407 0
-212 -408 0
-213 -406 0
-213 407 0
-213 -408 0
-214 406 0
-214 407 0
-214 -408 0
-215 -406 0
-215 -407 0
-215 408 0
-216 406 0
-216 -407 0
-216 408 0
211 212 213 214 215 216 0
-211 253 217 0
-211 253 169 0
-211 217 169 0
-212 254 218 0
-212 254 170 0
-212 218 170 0
-213 255 219 0
-213 255 171 0
-213 219 171 0
-214 256 220 0
-214 256 172 0
-214 220 172 0
-215 257 221 0
-215 257 173 0
-215 221 173 0
-216 258 222 0
-216 258 174 0
-216 222 174 0
-211 -253 -217 -169 0
-212 -254 -218 -170 0
-213 -255 -219 -171 0
-214 -256 -220 -172 0
-215 -257 -221 -173 0
-216 -258 -222 -174 0
219 0
-217 0
-218 0
-220 0
-221 0
-222 0
261 225 177 213 0
-261 -225 0
-261 -177 0
-261 -213 0
-225 -177 0
-225 -213 0
-177 -213 0
-223 -412 0
-223 -413 0
-223 -414 0
-224 412 0
-224 -413 0
-224 -414 0
-225 -412 0
-225 413 0
-225 -414 0
-226 412 0
-226 413 0
-226 -414 0
-227 -412 0
-227 -413 0
-227 414 0
-228 412 0
-228 -413 0
-228 414 0
223 224 225 226 227 228 0
-223 265 229 181 0
-223 265 229 217 0
-223 265 181 217 0
-223 229 181 217 0
-224 266 230 182 0
-224 266 230 218 0
-224 266 182 218 0
-224 230 182 218 0
-225 267 231 183 0
-225 267 231 219 0
-225 267 183 219 0
-225 231 183 219 0
-226 268 232 184 0
-226 268 232 220 0
-226 268 184 220 0
-226 232 184 220 0
-227 269 233 185 0
-227 269 233 221 0
-227 269 185 221 0
-227 233 185 221 0
-228 270 234 186 0
-228 270 234 222 0
-228 270 186 222 0
-228 234 186 222 0
-223 -265 -229 -181 0
-223 -265 -229 -217 0
-223 -265 -181 -217 0
-223 -229 -181 -217 0
-224 -266 -230 -182 0
-224 -266 -230 -218 0
-224 -266 -182 -218 0
-224 -230 -182 -218 0
-225 -267 -231 -183 0
-225 -267 -231 -219 0
-225 -267 -183 -219 0
-225 -231 -183 -219 0
-226 -268 -232 -184 0
-226 -268 -232 -220 0
-226 -268 -184 -220 0
-226 -232 -184 -220 0
-227 -269 -233 -185 0
-227 -269 -233 -221 0
-227 -269 -185 -221 0
-227 -233 -185 -221 0
-228 -270 -234 -186 0
-228 -270 -234 -222 0
-228 -270 -186 -222 0
-228 -234 -186 -222 0
-229 -415 0
-229 -416 0
-229 -417 0
-230 415 0
-230 -416 0
-230 -417 0
-231 -415 0
-231 416 0
-231 -417 0
-232 415 0
-232 416 0
-232 -417 0
-233 -415 0
-233 -416 0
-233 417 0
-234 415 0
-234 -416 0
-234 417 0
229 230 231 232 233 234 0
-229 271 235 187 0
-229 271 235 223 0
-229 271 187 223 0
-229 235 187 223 0
-230 272 236 188 0
-230 272 236 224 0
-230 272 188 224 0
-230 236 188 224 0
-231 273 237 189 0
-231 273 237 225 0
-231 273 189 225 0
-231 237 189 225 0
-232 274 238 190 0
-232 274 238 226 0
-232 274 190 226 0
-232 238 190 226 0
-233 275 239 191 0
-233 275 239 227 0
-233 275 191 227 0
-233 239 191 227 0
-234 276 240 192 0
-234 276 240 228 0
-234 276 192 228 0
-234 240 192 228 0
-229 -271 -235 -187 0
-229 -271 -235 -223 0
-229 -271 -187 -223 0
-229 -235 -187 -223 0
-230 -272 -236 -188 0
-230 -272 -236 -224 0
-230 -272 -188 -224 0
-230 -236 -188 -224 0
-231 -273 -237 -189 0
-231 -273 -237 -225 0
-231 -273 -189 -225 0
-231 -237 -189 -225 0
-232 -274 -238 -190 0
-232 -274 -238 -226 0
-232 -274 -190 -226 0
-232 -238 -190 -226 0
-233 -275 -239 -191 0
-233 -275 -239 -227 0
-233 -275 -191 -227 0
-233 -239 -191 -227 0
-234 -276 -240 -192 0
-234 -276 -240 -228 0
-234 -276 -192 -228 0
-234 -240 -192 -228 0
-235 -418 0
-235 -419 0
-235 -420 0
-236 418 0
-236 -419 0
-236 -420 0
-237 -418 0
-237 419 0
-237 -420 0
-238 418 0
-238 419 0
-238 -420 0
-239 -418 0
-239 -419 0
-239 420 0
-240 418 0
-240 -419 0
-240 420 0
235 236 237 238 239 240 0
-235 277 241 193 0
-235 277 241 229 0
-235 277 193 229 0
-235 241 193 229 0
-236 278 242 194 0
-236 278 242 230 0
-236 278 194 230 0
-236 242 194 230 0
-237 279 243 195 0
-237 279 243 231 0
-237 279 195 231 0
-237 243 195 231 0
-238 280 244 196 0
-238 280 244 232 0
-238 280 196 232 0
-238 244 196 232 0
-239 281 245 197 0
-239 281 245 233 0
-239 281 197 233 0
-239 245 197 233 0
-240 282 246 198 0
-240 282 246 234 0
-240 282 198 234 0
-240 246 198 234 0
-235 -277 -241 -193 0
-235 -277 -241 -229 0
-235 -277 -193 -229 0
-235 -241 -193 -229 0
-236 -278 -242 -194 0
-236 -278 -242 -230 0
-236 -278 -194 -230 0
-236 -242 -194 -230 0
-237 -279 -243 -195 0
-237 -279 -243 -231 0
-237 -279 -195 -231 0
-237 -243 -195 -231 0
-238 -280 -244 -196 0
-238 -280 -244 -232 0
-238 -280 -196 -232 0
-238 -244 -196 -232 0
-239 -281 -245 -197 0
-239 -281 -245 -233 0
-239 -281 -197 -233 0
-239 -245 -197 -233 0
-240 -282 -246 -198 0
-240 -282 -246 -234 0
-240 -282 -198 -234 0
-240 -246 -198 -234 0
243 0
-241 0
-242 0
-244 0
-245 0
-246 0
285 249 201 237 0
-285 -249 0
-285 -201 0
-285 -237 0
-249 -201 0
-249 -237 0
-201 -237 0
-247 -424 0
-247 -425 0
-247 -426 0
-248 424 0
-248 -425 0
-248 -426 0
-249 -424 0
-249 425 0
-249 -426 0
-250 424 0
-250 425 0
-250 -426 0
-251 -424 0
-251 -425 0
-251 426 0
-252 424 0
-252 -425 0
-252 426 0
247 248 249 250 251 252 0
-247 289 241 0
-247 289 205 0
-247 241 205 0
-248 290 242 0
-248 290 206 0
-248 242 206 0
-249 291 243 0
-249 291 207 0
-249 243 207 0
-250 292 244 0
-250 292 208 0
-250 244 208 0
-251 293 245 0
-251 293 209 0
-251 245 209 0
-252 294 246 0
-252 294 210 0
-252 246 210 0
-247 -289 -241 -205 0
-248 -290 -242 -206 0
-249 -291 -243 -207 0
-250 -292 -244 -208 0
-251 -293 -245 -209 0
-252 -294 -246 -210 0
253 0
-254 0
-255 0
-256 0
-257 0
-258 0
211 259 0
-211 -259 0
260 0
-259 0
-261 0
-262 0
-263 0
-264 0
218 266 254 0
-218 -266 0
-218 -254 0
-266 -254 0
-265 -433 0
-265 -434 0
-265 -435 0
-266 433 0
-266 -434 0
-266 -435 0
-267 -433 0
-267 434 0
-267 -435 0
-268 433 0
-268 434 0
-268 -435 0
-269 -433 0
-269 -434 0
-269 435 0
-270 433 0
-270 -434 0
-270 435 0
265 266 267 268 269 270 0
-265 223 271 0
-265 223 259 0
-265 271 259 0
-266 224 272 0
-266 224 260 0
-266 272 260 0
-267 225 273 0
-267 225 261 0
-267 273 261 0
-268 226 274 0
-268 226 262 0
-268 274 262 0
-269 227 275 0
-269 227 263 0
-269 275 263 0
-270 228 276 0
-270 228 264 0
-270 276 264 0
-265 -223 -271 -259 0
-266 -224 -272 -260 0
-267 -225 -273 -261 0
-268 -226 -274 -262 0
-269 -227 -275 -263 0
-270 -228 -276 -264 0
-271 -436 0
-271 -437 0
-271 -438 0
-272 436 0
-272 -437 0
-272 -438 0
-273 -436 0
-273 437 0
-273 -438 0
-274 436 0
-274 437 0
-274 -438 0
-275 -436 0
-275 -437 0
-275 438 0
-276 436 0
-276 -437 0
-276 438 0
271 272 273 274 275 276 0
-271 229 277 0
-271 229 265 0
-271 277 265 0
-272 230 278 0
-272 230 266 0
-272 278 266 0
-273 231 279 0
-273 231 267 0
-273 279 267 0
-274 232 280 0
-274 232 268 0
-274 280 268 0
-275 233 281 0
-275 233 269 0
-275 281 269 0
-276 234 282 0
-276 234 270 0
-276 282 270 0
-271 -229 -277 -265 0
-272 -230 -278 -266 0
-273 -231 -279 -267 0
-274 -232 -280 -268 0
-275 -233 -281 -269 0
-276 -234 -282 -270 0
-277 -439 0
-277 -440 0
-277 -441 0
-278 439 0
-278 -440 0
-278 -441 0
-279 -439 0
-279 440 0
-279 -441 0
-280 439 0
-280 440 0
-280 -441 0
-281 -439 0
-281 -440 0
-281 441 0
-282 439 0
-282 -440 0
-282 441 0
277 278 279 280 281 282 0
-277 235 283 0
-277 235 271 0
-277 283 271 0
-278 236 284 0
-278 236 272 0
-278 284 272 0
-279 237 285 0
-279 237 273 0
-279 285 273 0
-280 238 286 0
-280 238 274 0
-280 286 274 0
-281 239 287 0
-281 239 275 0
-281 287 275 0
-282 240 288 0
-282 240 276 0
-282 288 276 0
-277 -235 -283 -271 0
-278 -236 -284 -272 0
-279 -237 -285 -273 0
-280 -238 -286 -274 0
-281 -239 -287 -275 0
-282 -240 -288 -276 0
-283 -442 0
-283 -443 0
-283 -444 0
-284 442 0
-284 -443 0
-284 -444 0
-285 -442 0
-285 443 0
-285 -444 0
-286 442 0
-286 443 0
-286 -444 0
-287 -442 0
-287 -443 0
-287 444 0
-288 442 0
-288 -443 0
-288 444 0
283 284 285 286 287 288 0
-283 241 289 0
-283 241 277 0
-283 289 277 0
-284 242 290 0
-284 242 278 0
-284 290 278 0
-285 243 291 0
-285 243 279 0
-285 291 279 0
-286 244 292 0
-286 244 280 0
-286 292 280 0
-287 245 293 0
-287 245 281 0
-287 293 281 0
-288 246 294 0
-288 246 282 0
-288 294 282 0
-283 -241 -289 -277 0
-284 -242 -290 -278 0
-285 -243 -291 -279 0
-286 -244 -292 -280 0
-287 -245 -293 -281 0
-288 -246 -294 -282 0
-289 -445 0
-289 -446 0
-289 -447 0
-290 445 0
-290 -446 0
-290 -447 0
-291 -445 0
-291 446 0
-291 -447 0
-292 445 0
-292 446 0
-292 -447 0
-293 -445 0
-293 -446 0
-293 447 0
-294 445 0
-294 -446 0
-294 447 0
289 290 291 292 293 294 0
-289 247 0
-289 283 0
-290 248 0
-290 284 0
-291 249 0
-291 285 0
-292 250 0
-292 286 0
-293 251 0
-293 287 0
-294 252 0
-294 288 0
43 49 55 61 67 73 79 0
85 91 103 109 0
127 133 139 145 157 163 0
169 181 187 193 199 205 0
211 223 229 235 247 0
7 49 91 133 0
128 134 140 146 158 164 0
170 182 188 194 200 206 0
212 224 230 236 248 0
56 140 182 224 266 0
20 62 104 146 188 230 272 0
26 68 110 194 236 278 0
74 158 200 284 0
57 141 183 225 267 0
21 63 105 147 189 231 273 0
27 69 111 195 237 279 0
130 136 142 148 160 166 0
58 142 184 226 268 0
22 64 106 148 190 232 274 0
28 70 112 196 238 280 0
47 53 59 65 71 77 83 0
89 95 107 113 0
48 54 60 66 72 78 84 0
24 66 108 150 192 234 276 0
30 72 114 198 240 282 0
78 162 204 288 0